p wcnf 2000 200 1
1 1 0
1 2 0
1 3 0
1 4 0
1 5 0
1 6 0
1 7 0
1 8 0
1 9 0
1 10 0
1 11 0
1 12 0
1 1 1 1 1 1 1 2 2 2 2 2 0
1 2 2 2 2 2 2 2 2 2 2 2 0
1 2 2 2 3 3 3 3 3 3 3 3 0
1 3 3 3 3 3 3 3 3 3 3 4 0
1 4 4 4 4 4 4 4 4 4 4 4 0
1 4 4 5 5 5 5 5 5 5 5 5 0
1 5 6 6 6 6 6 6 6 6 6 6 0
1 6 6 6 6 6 6 6 7 7 7 7 0
1 7 7 7 7 7 7 7 7 7 7 7 0
1 8 8 8 8 8 8 8 8 8 8 8 0
1 8 8 8 8 8 8 8 8 8 8 9 0
1 9 9 9 9 9 9 9 9 9 9 9 0
1 9 9 9 9 9 9 9 9 9 9 9 0
1 10 10 10 10 10 10 10 10 10 10 10 0
1 10 10 10 10 10 10 10 11 11 11 11 0
1 11 11 11 11 11 11 11 11 11 11 11 0
1 12 12 12 12 12 12 12 12 12 12 12 0
1 12 12 12 12 12 12 12 12 12 12 13 0
1 13 13 13 13 13 13 13 13 13 13 13 0
1 14 14 14 14 14 14 14 14 14 14 14 0
1 14 14 14 14 14 14 14 15 15 15 15 0
1 15 15 15 15 15 15 15 16 16 16 16 0
1 16 16 16 16 16 16 16 16 16 16 17 0
1 17 17 17 17 17 17 17 17 17 17 17 0
1 18 18 18 18 18 18 18 18 18 18 18 0
1 18 18 18 18 18 18 18 19 19 19 19 0
1 19 19 19 19 19 19 19 19 19 19 19 0
1 19 19 19 19 19 19 19 19 19 20 20 0
1 20 20 20 20 20 20 20 20 20 20 20 0
1 20 20 20 20 20 20 20 20 20 21 21 0
1 21 21 21 21 21 21 21 21 21 21 21 0
1 21 21 21 21 22 22 22 22 22 22 22 0
1 22 22 22 22 22 22 22 22 22 22 23 0
1 23 23 23 23 23 23 23 23 23 23 23 0
1 23 23 23 23 23 23 23 24 24 24 24 0
1 24 24 24 24 24 24 24 24 24 24 24 0
1 24 24 24 24 24 24 24 24 24 25 25 0
1 25 25 25 25 25 25 25 25 25 25 25 0
1 25 25 25 25 26 26 26 26 26 26 26 0
1 26 26 26 26 26 26 26 26 26 26 26 0
1 27 27 27 27 27 27 27 27 27 27 27 0
1 27 27 27 27 27 27 27 27 27 27 27 0
1 27 27 27 28 28 28 28 28 28 28 28 0
1 28 28 28 28 28 28 28 29 29 29 29 0
1 29 29 29 29 29 29 29 29 29 29 29 0
1 29 29 29 29 29 29 30 30 30 30 30 0
1 30 30 30 30 30 30 30 30 30 30 30 0
1 31 31 31 31 31 31 31 31 31 31 31 0
1 31 31 31 31 31 31 31 31 31 31 31 0
1 32 32 32 32 32 32 32 32 32 32 32 0
1 32 32 32 32 32 33 33 33 33 33 33 0
1 33 33 33 33 33 33 33 33 33 33 33 0
1 33 33 34 34 34 34 34 34 34 34 34 0
1 34 34 34 34 34 34 34 34 34 34 34 0
1 34 34 34 35 35 35 35 35 35 35 35 0
1 35 35 35 35 35 35 35 35 35 36 36 0
1 36 36 36 36 36 36 36 36 36 36 36 0
1 36 36 36 36 36 36 36 36 37 37 37 0
1 37 37 37 37 37 37 37 37 37 37 37 0
1 37 37 37 37 37 38 38 38 38 38 38 0
1 38 38 38 38 38 38 38 38 38 38 38 0
1 38 38 38 38 38 38 39 39 39 39 39 0
1 39 39 39 39 39 39 39 39 39 39 39 0
1 39 40 40 40 40 40 40 40 40 40 40 0
1 40 40 40 40 40 40 40 40 40 40 40 0
1 40 40 40 40 41 41 41 41 41 41 41 0
1 41 41 41 41 41 41 41 41 41 41 41 0
1 41 41 41 42 42 42 42 42 42 42 42 0
1 42 42 43 43 43 43 43 43 43 43 43 0
1 43 43 43 43 43 43 44 44 44 44 44 0
1 44 44 44 44 44 44 44 44 44 44 44 0
1 44 45 45 45 45 45 45 45 45 45 45 0
1 45 45 45 45 45 45 45 45 46 46 46 0
1 46 46 46 46 46 46 46 46 46 46 46 0
1 46 46 46 46 47 47 47 47 47 47 47 0
1 47 47 47 47 47 47 47 47 47 47 47 0
1 47 48 48 48 48 48 48 48 48 48 48 0
1 48 48 48 48 48 48 48 48 48 48 49 0
1 49 49 49 49 49 49 49 49 49 49 49 0
1 49 49 49 49 49 49 49 49 49 50 50 0
1 50 50 50 50 50 50 50 50 50 50 50 0
1 50 50 50 50 50 50 50 50 50 50 50 0
1 51 51 51 51 51 51 51 51 51 51 51 0
1 51 51 51 51 51 51 51 51 51 51 51 0
1 52 52 52 52 52 52 52 52 52 52 52 0
1 52 52 52 52 52 52 52 52 52 52 52 0
1 52 52 53 53 53 53 53 53 53 53 53 0
1 53 53 53 53 53 53 53 53 53 53 53 0
1 53 53 53 53 53 53 53 53 54 54 54 0
1 54 54 54 54 54 54 54 54 54 54 54 0
1 54 55 55 55 55 55 55 55 55 55 55 0
1 55 55 55 55 55 55 55 55 55 56 56 0
1 56 56 56 56 56 56 56 56 56 56 56 0
1 56 56 57 57 57 57 57 57 57 57 57 0
1 57 57 57 57 57 57 58 58 58 58 58 0
1 58 58 58 58 58 58 58 58 58 58 58 0
1 59 59 59 59 59 59 59 59 59 59 59 0
1 59 59 59 59 59 59 59 59 59 59 60 0
1 60 60 60 60 60 60 60 60 60 60 60 0
1 60 60 60 60 60 60 60 60 60 61 61 0
1 61 61 61 61 61 61 61 61 61 61 61 0
1 61 61 61 61 61 61 61 62 62 62 62 0
1 62 62 62 62 62 62 62 62 62 62 62 0
1 62 63 63 63 63 63 63 63 63 63 63 0
1 63 63 63 63 63 63 63 63 63 63 63 0
1 64 64 64 64 64 64 64 64 64 64 64 0
1 64 64 64 64 64 64 64 64 65 65 65 0
1 65 65 65 65 65 65 65 65 65 65 65 0
1 65 65 65 65 65 65 65 65 66 66 66 0
1 66 66 66 66 66 66 66 66 66 66 66 0
1 66 66 66 66 66 66 66 66 66 66 67 0
1 67 67 67 67 67 67 67 67 67 67 67 0
1 67 67 67 67 67 67 67 67 67 67 68 0
1 68 68 68 68 68 68 68 68 68 68 68 0
1 68 68 68 68 68 69 69 69 69 69 69 0
1 69 69 69 69 69 69 69 69 69 69 69 0
1 69 69 70 70 70 70 70 70 70 70 70 0
1 70 70 70 70 70 70 70 70 70 70 70 0
1 71 71 71 71 71 71 71 71 71 71 71 0
1 71 71 71 71 71 72 72 72 72 72 72 0
1 72 72 72 72 72 72 72 72 72 72 72 0
1 72 72 72 72 72 72 72 73 73 73 73 0
1 73 73 73 73 73 73 73 73 73 73 73 0
1 73 73 73 74 74 74 74 74 74 74 74 0
1 74 74 74 74 74 74 74 75 75 75 75 0
1 75 75 75 75 75 75 75 75 75 75 75 0
1 75 75 75 75 75 75 75 76 76 76 76 0
1 76 76 76 76 76 76 76 76 76 76 76 0
1 76 76 76 76 76 77 77 77 77 77 77 0
1 77 77 77 77 77 77 77 77 77 77 77 0
1 77 77 77 77 78 78 78 78 78 78 78 0
1 78 78 78 78 78 78 78 78 78 78 79 0
1 79 79 79 79 79 79 79 79 79 79 79 0
1 79 79 79 80 80 80 80 80 80 80 80 0
1 80 80 80 80 80 81 81 81 81 81 81 0
1 81 81 81 81 81 81 81 81 81 81 82 0
1 82 82 82 82 82 82 82 82 82 82 82 0
1 82 82 82 83 83 83 83 83 83 83 83 0
1 83 83 83 83 83 83 83 83 83 83 84 0
1 84 84 84 84 84 84 84 84 84 84 84 0
1 84 84 84 84 84 84 85 85 85 85 85 0
1 85 85 85 85 85 85 85 85 85 85 85 0
1 86 86 86 86 86 86 86 86 86 86 86 0
1 86 87 87 87 87 87 87 87 87 87 87 0
1 88 88 88 88 88 88 88 88 88 88 88 0
1 88 88 88 88 88 88 88 89 89 89 89 0
1 89 89 89 89 89 89 89 89 90 90 90 0
1 90 90 90 90 90 90 90 90 90 90 90 0
1 90 90 90 90 90 91 91 91 91 91 91 0
1 91 91 91 91 91 91 91 91 92 92 92 0
1 92 92 92 92 92 92 92 92 92 92 92 0
1 93 93 93 93 93 93 93 93 93 93 93 0
1 93 93 93 93 93 93 93 94 94 94 94 0
1 94 94 94 94 94 94 94 94 94 94 94 0
1 94 94 94 94 94 94 94 94 94 94 94 0
1 94 94 95 95 95 95 95 95 95 95 95 0
1 95 95 95 95 95 95 95 95 95 95 95 0
1 95 96 96 96 96 96 96 96 96 96 96 0
1 96 96 96 96 96 96 96 96 96 96 96 0
1 96 96 96 97 97 97 97 97 97 97 97 0
1 97 97 97 97 98 98 98 98 98 98 98 0
1 98 98 98 98 98 98 98 98 98 98 99 0
1 99 99 99 99 99 99 99 99 99 99 99 0
1 99 99 99 99 99 99 99 99 99 99 99 0
1 100 100 100 100 100 100 100 100 100 100 100 0
1 100 100 100 100 100 100 100 0
1  0
1 60 64 96 109 128 144 230 236 341 348 365 0
1 390 419 458 463 492 523 685 687 695 706 715 0
1 927 940 1058 1094 1101 1149 1166 1231 1431 1438 1492 0
1 1697 1828 1833 1930 1944 0
1  0
1 20 32 108 139 165 166 198 209 217 242 256 0
1 315 392 433 456 480 493 496 519 523 561 574 0
1 681 696 828 836 879 911 926 931 975 1154 1171 0
1 1205 1226 1294 1447 1455 1480 1607 1711 1723 1899 1917 0
1 1940 1959 0
1  0
1 54 137 148 245 261 265 272 326 391 498 503 0
1 588 653 670 693 698 729 759 875 913 939 1048 0
1 1344 1347 1351 1371 1415 1462 1598 1615 1628 1663 1694 0
1 1737 1762 1792 1808 1818 1851 1859 1925 1957 1960 0
1  0
1 60 190 268 337 351 355 391 421 425 452 654 0
1 755 849 898 905 935 948 958 1065 1138 1224 1278 0
1 1330 1346 1404 1413 1435 1478 1512 1524 1541 1625 1663 0
1 1700 1721 1783 1816 1853 1884 1924 1932 1934 1964 1968 0
1  0
1 53 120 153 221 277 461 499 538 579 610 710 0
1 790 972 1011 1090 1097 1134 1165 1234 1364 1398 1454 0
1 1513 1515 1525 1537 1544 1559 1600 1609 1669 1691 1699 0
1 1818 1940 1987 0
1  0
1 55 71 97 110 127 395 403 422 467 494 545 0
1 622 640 645 665 756 764 848 880 1075 1099 1156 0
1 1233 1254 1321 1327 1397 1431 1461 1555 1566 1629 1705 0
1 1862 1876 1905 1915 0
1  0
1 89 125 164 285 331 359 434 436 587 665 833 0
1 900 921 984 1010 1031 1086 1148 1281 1295 1364 1388 0
